p tw 103 277
0 1
0 2
0 3
0 4
0 39
0 60
0 61
1 2
1 3
1 4
1 50
1 51
2 3
2 4
2 38
2 40
2 41
2 42
3 4
3 67
3 68
4 94
5 6
5 70
6 71
7 8
7 15
8 14
8 20
8 91
8 98
9 10
9 16
9 42
9 51
9 60
9 67
10 17
10 19
10 78
10 79
11 12
11 13
11 18
11 19
11 20
11 21
12 13
12 24
12 32
12 78
13 43
13 70
13 71
14 15
14 16
14 17
14 20
14 91
14 98
15 16
15 17
16 17
16 42
16 51
16 60
16 67
17 19
17 78
17 79
18 19
18 20
18 21
18 24
19 20
19 21
19 78
19 79
20 21
20 91
20 98
21 90
21 100
22 23
22 52
23 36
23 82
23 99
24 32
24 78
25 26
25 79
25 98
25 100
26 90
26 91
27 28
27 29
27 30
27 75
27 80
27 88
27 89
28 29
28 30
28 74
28 81
29 30
29 64
30 73
30 93
30 95
30 96
31 32
31 33
31 34
31 35
31 62
31 83
31 93
32 33
32 34
32 35
32 78
33 34
33 35
33 46
33 86
34 35
34 76
34 87
35 37
35 77
36 37
36 38
36 39
36 82
36 99
37 38
37 39
37 77
38 39
38 40
38 41
38 42
39 60
39 61
40 41
40 42
40 50
41 42
41 61
42 51
42 60
42 67
43 44
43 45
43 46
43 70
43 71
44 45
44 46
44 54
44 69
44 92
45 46
45 56
45 57
45 58
45 59
46 86
47 48
47 49
47 58
48 49
48 57
48 92
48 97
48 101
48 102
49 53
49 54
49 55
49 56
50 51
51 60
51 67
52 99
53 54
53 55
53 56
53 66
53 102
54 55
54 56
54 69
54 92
55 56
55 65
56 57
56 58
56 59
57 58
57 59
57 92
57 97
57 101
57 102
58 59
59 69
60 61
60 67
62 63
62 83
62 93
63 72
63 73
63 74
63 75
64 80
64 81
65 66
66 102
67 68
68 94
69 92
70 71
72 73
72 74
72 75
72 82
72 83
73 74
73 75
73 93
73 95
73 96
74 75
74 81
75 80
75 88
75 89
76 77
76 87
78 79
79 98
79 100
80 81
80 88
80 89
82 83
82 99
83 93
84 85
84 88
84 96
84 97
85 89
86 87
88 89
88 96
88 97
90 91
90 100
91 98
92 97
92 101
92 102
93 95
93 96
95 96
95 101
96 97
97 101
97 102
98 100
101 102
